User:   chaolian@i23
Date:   Wed Feb 13 18:05:13 2019
Arch:   x86_64
Pid:    57479
Python: 3.4.5
gpaw:   /bigdata/wonglab/chaolian/.conda/envs/gpaw/lib/python3.4/site-packages/gpaw
_gpaw:  /bigdata/wonglab/chaolian/.conda/envs/gpaw/bin/gpaw-python (00677bce83)
ase:    /bigdata/wonglab/chaolian/.conda/envs/gpaw/lib/python3.4/site-packages/ase (version 3.16.2)
numpy:  /bigdata/wonglab/chaolian/.conda/envs/gpaw/lib/python3.4/site-packages/numpy (version 1.11.3)
scipy:  /bigdata/wonglab/chaolian/.conda/envs/gpaw/lib/python3.4/site-packages/scipy (version 0.18.1)
units:  Angstrom and eV
cores:  24

Input parameters:
  basis: dzp
  kpts: [2 1 1]
  mode: lcao
  occupations: {name: fermi-dirac,
                width: 0.05}
  xc: PBE

System changes: positions, numbers, cell, pbc, initial_charges, initial_magmoms

Initialize ...

In-setup:
  name: Indium
  id: 4115a36869ad701825fde81bee9eb9d4
  Z: 49
  valence: 13
  core: 36
  charge: 0.0
  file: /rhome/chaolian/bigdata/gpaw-setups-0.9.20000/In.PBE.gz
  cutoffs: 1.14(comp), 2.09(filt), 2.48(core), lmax=2
  valence states:
                energy  radius
    5s(2.00)    -8.203   1.185
    5p(1.00)    -2.521   1.244
    4d(10.00)   -18.629   1.148
    *s          19.008   1.185
    *p          24.691   1.244
    *d           8.583   1.148

  LCAO basis set for In:
    Name: dzp
    File: /rhome/chaolian/bigdata/gpaw-setups-0.9.20000/In.dzp.basis.gz
    Number of radial functions: 7
    Number of spherical harmonics: 23
      l=0, rc=7.7188 Bohr: 5s-sz confined orbital
      l=1, rc=10.7500 Bohr: 5p-sz confined orbital
      l=2, rc=4.4219 Bohr: 4d-sz confined orbital
      l=0, rc=4.5312 Bohr: 5s-dz split-valence wave
      l=1, rc=6.4688 Bohr: 5p-dz split-valence wave
      l=2, rc=2.7344 Bohr: 4d-dz split-valence wave
      l=2, rc=10.7500 Bohr: d-type Gaussian polarization

As-setup:
  name: Arsenic
  id: bf96491e5ab01ad111b1ee6203e85afa
  Z: 33
  valence: 5
  core: 28
  charge: 0.0
  file: /rhome/chaolian/bigdata/gpaw-setups-0.9.20000/As.PBE.gz
  cutoffs: 1.06(comp), 1.87(filt), 2.96(core), lmax=2
  valence states:
                energy  radius
    4s(2.00)   -14.487   1.058
    4p(3.00)    -5.196   1.058
    *s          12.725   1.058
    *p          22.016   1.058
    *d           0.000   1.058

  LCAO basis set for As:
    Name: dzp
    File: /rhome/chaolian/bigdata/gpaw-setups-0.9.20000/As.dzp.basis.gz
    Number of radial functions: 5
    Number of spherical harmonics: 13
      l=0, rc=6.1250 Bohr: 4s-sz confined orbital
      l=1, rc=7.9531 Bohr: 4p-sz confined orbital
      l=0, rc=3.4219 Bohr: 4s-dz split-valence wave
      l=1, rc=4.6094 Bohr: 4p-dz split-valence wave
      l=2, rc=7.9531 Bohr: d-type Gaussian polarization

Reference energy: -7013369.639409

Spin-paired calculation

Occupation numbers:
  Fermi-Dirac: width=0.0500 eV

Convergence criteria:
  Maximum total energy change: 0.0005 eV / electron
  Maximum integral of absolute density change: 0.0001 electrons
  Maximum integral of absolute eigenstate change: 4e-08 eV^2
  Maximum number of iterations: 333

Symmetries present (total): 1

  ( 1  0  0)
  ( 0  1  0)
  ( 0  0  1)

2 k-points: 2 x 1 x 1 Monkhorst-Pack grid
1 k-point in the irreducible part of the Brillouin zone
       k-points in crystal coordinates                weights
   0:     0.25000000    0.00000000    0.00000000          2/2

Wave functions: LCAO
  Diagonalizer: Serial LAPACK
  Atomic Correction: dense with blas
  Datatype: complex

Eigensolver
   LCAO using direct dense diagonalizer

Densities:
  Coarse grid: 44*84*124 grid
  Fine grid: 88*168*248 grid
  Total Charge: 0.000000

Density mixing:
  Method: separate
  Backend: pulay
  Linear mixing parameter: 0.05
  Mixing with 5 old densities
  Damping of long wave oscillations: 50

Hamiltonian:
  XC and Coulomb potentials evaluated on a 88*168*248 grid
  Using the PBE Exchange-Correlation functional
  Interpolation: tri-quintic (5. degree polynomial)
  Poisson solver: Jacobi solver with 4 multi-grid levels
    Coarsest grid: 11 x 21 x 31 points
    Warning: Coarse grid has more than 24 points.
             More multi-grid levels recommended.
    Stencil: 6*3+1=19 point O(h^6) finite-difference Laplacian
    Max iterations: 1000
    Tolerance: 2.000000e-10

Total number of cores used: 24
Domain decomposition: 2 x 3 x 4

Number of atoms: 66
Number of atomic orbitals: 1158
Number of bands in calculation: 414
Bands to converge: occupied states only
Number of valence electrons: 570

... initialized

Initializing position-dependent things.

Density initialized from atomic densities
 |         |  AAs   AsAs        |
 |         | InIn      In       |
 |         | As    As   In      |
 |       AsInIn   AsAsIn     As |
 |     As  |              As    |
 |      InIn    AAsIIn      In  |
 |  AsIn   |AAsAs     AsAs      |
 |         | IInIn      IIn     |
 |       AsAsn    AsAAsIn    As |
 |     As  |    AAs       As    |
 |      IIn|       IIn          |
 |  Asn    | AsAsn      As      |
 |         As--------As---------.

Positions:
   0 In     5.337735    7.472270    7.970000    ( 0.0000,  0.0000,  0.0000)
   1 In     1.066805    7.472270    7.970000    ( 0.0000,  0.0000,  0.0000)
   2 As     7.473195    3.201340    6.460000    ( 0.0000,  0.0000,  0.0000)
   3 As     3.202275    3.201340    6.460000    ( 0.0000,  0.0000,  0.0000)
   4 As     7.473195    7.472270    6.460000    ( 0.0000,  0.0000,  0.0000)
   5 As     3.202275    7.472270    6.460000    ( 0.0000,  0.0000,  0.0000)
   6 As     6.599514    3.254465   19.097113    ( 0.0000,  0.0000,  0.0000)
   7 As     4.089262    3.252764   19.099652    ( 0.0000,  0.0000,  0.0000)
   8 As     6.598042    7.450702   19.104636    ( 0.0000,  0.0000,  0.0000)
   9 As     4.087105    7.448008   19.108941    ( 0.0000,  0.0000,  0.0000)
  10 In     7.337478    1.702854   17.112347    ( 0.0000,  0.0000,  0.0000)
  11 In     3.357263    1.697274   17.115526    ( 0.0000,  0.0000,  0.0000)
  12 In     7.229896    5.354482   17.434875    ( 0.0000,  0.0000,  0.0000)
  13 In     3.456470    5.353035   17.437197    ( 0.0000,  0.0000,  0.0000)
  14 As     5.348668    0.949434   15.558782    ( 0.0000,  0.0000,  0.0000)
  15 As     1.072850    1.047689   15.878132    ( 0.0000,  0.0000,  0.0000)
  16 As     5.342605    5.356707   15.554094    ( 0.0000,  0.0000,  0.0000)
  17 As     1.074352    5.351143   16.048992    ( 0.0000,  0.0000,  0.0000)
  18 In     5.342826    3.177183   14.055639    ( 0.0000,  0.0000,  0.0000)
  19 In     1.074218    3.267344   14.308687    ( 0.0000,  0.0000,  0.0000)
  20 In     5.341628    7.532381   14.047653    ( 0.0000,  0.0000,  0.0000)
  21 In     1.072634    7.438751   14.317662    ( 0.0000,  0.0000,  0.0000)
  22 As     7.546402    3.206176   12.586090    ( 0.0000,  0.0000,  0.0000)
  23 As     3.139468    3.205030   12.582947    ( 0.0000,  0.0000,  0.0000)
  24 As     7.548427    7.472917   12.586645    ( 0.0000,  0.0000,  0.0000)
  25 As     3.133930    7.473693   12.583216    ( 0.0000,  0.0000,  0.0000)
  26 In     7.473195    1.065880   10.990000    ( 0.0000,  0.0000,  0.0000)
  27 In     3.202275    1.065880   10.990000    ( 0.0000,  0.0000,  0.0000)
  28 In     7.473195    5.336800   10.990000    ( 0.0000,  0.0000,  0.0000)
  29 In     3.202275    5.336800   10.990000    ( 0.0000,  0.0000,  0.0000)
  30 As     5.337735    1.065880    9.480000    ( 0.0000,  0.0000,  0.0000)
  31 As     1.066805    1.065880    9.480000    ( 0.0000,  0.0000,  0.0000)
  32 As     5.337735    5.336800    9.480000    ( 0.0000,  0.0000,  0.0000)
  33 As     1.066805    5.336800    9.480000    ( 0.0000,  0.0000,  0.0000)
  34 In     5.337735    3.201340    7.970000    ( 0.0000,  0.0000,  0.0000)
  35 In     1.066805    3.201340    7.970000    ( 0.0000,  0.0000,  0.0000)
  36 In     5.337735   16.014120    7.970000    ( 0.0000,  0.0000,  0.0000)
  37 In     1.066805   16.014120    7.970000    ( 0.0000,  0.0000,  0.0000)
  38 As     7.473195   11.743190    6.460000    ( 0.0000,  0.0000,  0.0000)
  39 As     3.202275   11.743190    6.460000    ( 0.0000,  0.0000,  0.0000)
  40 As     7.473195   16.014120    6.460000    ( 0.0000,  0.0000,  0.0000)
  41 As     3.202275   16.014120    6.460000    ( 0.0000,  0.0000,  0.0000)
  42 In     7.323683    9.002212   17.115921    ( 0.0000,  0.0000,  0.0000)
  43 In     3.355073    9.002986   17.124482    ( 0.0000,  0.0000,  0.0000)
  44 As     5.338439    9.754283   15.556532    ( 0.0000,  0.0000,  0.0000)
  45 As     1.067818    9.652346   15.891659    ( 0.0000,  0.0000,  0.0000)
  46 As     4.466488   13.897032   15.937671    ( 0.0000,  0.0000,  0.0000)
  47 As     1.957821   13.883626   15.981527    ( 0.0000,  0.0000,  0.0000)
  48 In     5.238226   12.063706   14.135684    ( 0.0000,  0.0000,  0.0000)
  49 In     1.153334   11.956007   14.272754    ( 0.0000,  0.0000,  0.0000)
  50 In     5.238023   15.728882   14.133884    ( 0.0000,  0.0000,  0.0000)
  51 In     1.150199   15.808887   14.275148    ( 0.0000,  0.0000,  0.0000)
  52 As     7.491242   11.777422   12.678889    ( 0.0000,  0.0000,  0.0000)
  53 As     3.160145   11.717986   12.525427    ( 0.0000,  0.0000,  0.0000)
  54 As     7.492279   15.981428   12.677787    ( 0.0000,  0.0000,  0.0000)
  55 As     3.156270   16.040031   12.526436    ( 0.0000,  0.0000,  0.0000)
  56 In     7.473195    9.607730   10.990000    ( 0.0000,  0.0000,  0.0000)
  57 In     3.202275    9.607730   10.990000    ( 0.0000,  0.0000,  0.0000)
  58 In     7.473195   13.878650   10.990000    ( 0.0000,  0.0000,  0.0000)
  59 In     3.202275   13.878650   10.990000    ( 0.0000,  0.0000,  0.0000)
  60 As     5.337735    9.607730    9.480000    ( 0.0000,  0.0000,  0.0000)
  61 As     1.066805    9.607730    9.480000    ( 0.0000,  0.0000,  0.0000)
  62 As     5.337735   13.878650    9.480000    ( 0.0000,  0.0000,  0.0000)
  63 As     1.066805   13.878650    9.480000    ( 0.0000,  0.0000,  0.0000)
  64 In     5.337735   11.743190    7.970000    ( 0.0000,  0.0000,  0.0000)
  65 In     1.066805   11.743190    7.970000    ( 0.0000,  0.0000,  0.0000)

Unit cell:
           periodic     x           y           z      points  spacing
  1. axis:    yes    8.540000    0.000000    0.000000    44     0.1941
  2. axis:    yes    0.000000   17.080000    0.000000    84     0.2033
  3. axis:    yes    0.000000    0.000000   25.000000   124     0.2016

  Lengths:   8.540000  17.080000  25.000000
  Angles:   90.000000  90.000000  90.000000

Effective grid spacing dv^(1/3) = 0.1996

                     log10-error:    total        iterations:
           time      wfs    density  energy       fermi  poisson
iter:   1  18:06:10          +inf  -237.059654    2      111
iter:   2  18:06:55         -1.26  -235.841496    4      53
iter:   3  18:07:46         -1.30  -233.756913    2      66
iter:   4  18:08:34         -1.45  -233.568025    34     79
iter:   5  18:09:23         -1.49  -234.308561    5      67
iter:   6  18:10:13         -1.73  -233.095595    33     83
iter:   7  18:10:57         -1.75  -232.489945    3      59
iter:   8  18:11:49         -2.02  -232.369311    3      39
iter:   9  18:12:31         -2.25  -232.258163    3      47
iter:  10  18:13:24         -2.46  -232.203387    4      50
iter:  11  18:14:05         -2.58  -232.186895    3      21
iter:  12  18:14:45         -2.71  -232.178936    2      15
iter:  13  18:15:29         -2.92  -232.176420    3      25
iter:  14  18:16:10         -3.01  -232.173735    2      11
iter:  15  18:16:57         -3.12  -232.175929    2      11
iter:  16  18:17:38         -3.27  -232.177448    3      19
iter:  17  18:18:18         -3.39  -232.175006    2      6
iter:  18  18:19:04         -3.49  -232.175319    3      22
iter:  19  18:19:44         -3.63  -232.177279    2      6
iter:  20  18:20:31         -3.67  -232.175453    3      17
iter:  21  18:21:11         -3.67  -232.174008    2      5
iter:  22  18:21:52         -3.90  -232.175683    2      4
iter:  23  18:22:31         -4.05  -232.177893    2      5

Converged after 23 iterations.

Dipole moment: (11.720906, 14.249583, 1.169102) |e|*Ang

Energy contributions relative to reference atoms: (reference = -7013369.639409)

Kinetic:       +536.074272
Potential:     -494.244836
External:        +0.000000
XC:            -276.092824
Entropy (-ST):   -0.299299
Local:           +2.235145
Free energy:   -232.327543
Extrapolated:  -232.177893

Fermi level: -0.32206

 Band  Eigenvalues  Occupancy
    0    -14.84791    2.00000
    1    -14.84496    2.00000
    2    -14.82903    2.00000
    3    -14.82670    2.00000
    4    -14.79931    2.00000
    5    -14.79535    2.00000
    6    -14.74384    2.00000
    7    -14.74021    2.00000
    8    -14.72688    2.00000
    9    -14.72445    2.00000
   10    -14.72107    2.00000
   11    -14.71589    2.00000
   12    -14.71382    2.00000
   13    -14.70817    2.00000
   14    -14.69854    2.00000
   15    -14.69525    2.00000
   16    -14.68647    2.00000
   17    -14.68365    2.00000
   18    -14.67781    2.00000
   19    -14.67289    2.00000
   20    -14.66285    2.00000
   21    -14.65870    2.00000
   22    -14.65665    2.00000
   23    -14.65352    2.00000
   24    -14.65133    2.00000
   25    -14.64891    2.00000
   26    -14.64487    2.00000
   27    -14.63529    2.00000
   28    -14.62962    2.00000
   29    -14.61647    2.00000
   30    -14.61195    2.00000
   31    -14.60518    2.00000
   32    -14.60320    2.00000
   33    -14.59728    2.00000
   34    -14.57489    2.00000
   35    -14.57043    2.00000
   36    -14.55925    2.00000
   37    -14.55646    2.00000
   38    -14.55523    2.00000
   39    -14.54287    2.00000
   40    -14.54190    2.00000
   41    -14.53365    2.00000
   42    -14.53273    2.00000
   43    -14.52510    2.00000
   44    -14.52048    2.00000
   45    -14.51619    2.00000
   46    -14.51094    2.00000
   47    -14.51052    2.00000
   48    -14.50521    2.00000
   49    -14.50143    2.00000
   50    -14.50063    2.00000
   51    -14.49386    2.00000
   52    -14.49360    2.00000
   53    -14.49110    2.00000
   54    -14.48546    2.00000
   55    -14.48494    2.00000
   56    -14.48029    2.00000
   57    -14.47548    2.00000
   58    -14.47387    2.00000
   59    -14.47104    2.00000
[...]
  399      6.81046    0.00000
  400      6.82938    0.00000
  401      6.95097    0.00000
  402      6.99994    0.00000
  403      7.00688    0.00000
  404      7.10000    0.00000
  405      7.10025    0.00000
  406      7.20083    0.00000
  407      7.23780    0.00000
  408      7.32430    0.00000
  409      7.34260    0.00000
  410      7.34764    0.00000
  411      7.47440    0.00000
  412      7.69730    0.00000
  413      7.74003    0.00000

Writing to scf.gpw (mode='all')