User:   chaolian@i24
Date:   Thu Feb 14 15:53:57 2019
Arch:   x86_64
Pid:    161539
Python: 3.4.5
gpaw:   /bigdata/wonglab/chaolian/.conda/envs/gpaw/lib/python3.4/site-packages/gpaw
_gpaw:  /bigdata/wonglab/chaolian/.conda/envs/gpaw/bin/gpaw-python (00677bce83)
ase:    /bigdata/wonglab/chaolian/.conda/envs/gpaw/lib/python3.4/site-packages/ase (version 3.16.2)
numpy:  /bigdata/wonglab/chaolian/.conda/envs/gpaw/lib/python3.4/site-packages/numpy (version 1.11.3)
scipy:  /bigdata/wonglab/chaolian/.conda/envs/gpaw/lib/python3.4/site-packages/scipy (version 0.18.1)
units:  Angstrom and eV
cores:  24

Input parameters:
  basis: dzp
  kpts: [2 1 1]
  mode: lcao
  occupations: {name: fermi-dirac,
                width: 0.05}
  xc: PBE

System changes: positions, numbers, cell, pbc, initial_charges, initial_magmoms

Initialize ...

As-setup:
  name: Arsenic
  id: bf96491e5ab01ad111b1ee6203e85afa
  Z: 33
  valence: 5
  core: 28
  charge: 0.0
  file: /rhome/chaolian/bigdata/gpaw-setups-0.9.20000/As.PBE.gz
  cutoffs: 1.06(comp), 1.87(filt), 2.96(core), lmax=2
  valence states:
                energy  radius
    4s(2.00)   -14.487   1.058
    4p(3.00)    -5.196   1.058
    *s          12.725   1.058
    *p          22.016   1.058
    *d           0.000   1.058

  LCAO basis set for As:
    Name: dzp
    File: /rhome/chaolian/bigdata/gpaw-setups-0.9.20000/As.dzp.basis.gz
    Number of radial functions: 5
    Number of spherical harmonics: 13
      l=0, rc=6.1250 Bohr: 4s-sz confined orbital
      l=1, rc=7.9531 Bohr: 4p-sz confined orbital
      l=0, rc=3.4219 Bohr: 4s-dz split-valence wave
      l=1, rc=4.6094 Bohr: 4p-dz split-valence wave
      l=2, rc=7.9531 Bohr: d-type Gaussian polarization

In-setup:
  name: Indium
  id: 4115a36869ad701825fde81bee9eb9d4
  Z: 49
  valence: 13
  core: 36
  charge: 0.0
  file: /rhome/chaolian/bigdata/gpaw-setups-0.9.20000/In.PBE.gz
  cutoffs: 1.14(comp), 2.09(filt), 2.48(core), lmax=2
  valence states:
                energy  radius
    5s(2.00)    -8.203   1.185
    5p(1.00)    -2.521   1.244
    4d(10.00)   -18.629   1.148
    *s          19.008   1.185
    *p          24.691   1.244
    *d           8.583   1.148

  LCAO basis set for In:
    Name: dzp
    File: /rhome/chaolian/bigdata/gpaw-setups-0.9.20000/In.dzp.basis.gz
    Number of radial functions: 7
    Number of spherical harmonics: 23
      l=0, rc=7.7188 Bohr: 5s-sz confined orbital
      l=1, rc=10.7500 Bohr: 5p-sz confined orbital
      l=2, rc=4.4219 Bohr: 4d-sz confined orbital
      l=0, rc=4.5312 Bohr: 5s-dz split-valence wave
      l=1, rc=6.4688 Bohr: 5p-dz split-valence wave
      l=2, rc=2.7344 Bohr: 4d-dz split-valence wave
      l=2, rc=10.7500 Bohr: d-type Gaussian polarization

Reference energy: -7087308.584329

Spin-paired calculation

Occupation numbers:
  Fermi-Dirac: width=0.0500 eV

Convergence criteria:
  Maximum total energy change: 0.0005 eV / electron
  Maximum integral of absolute density change: 0.0001 electrons
  Maximum integral of absolute eigenstate change: 4e-08 eV^2
  Maximum number of iterations: 333

Symmetries present (total): 1

  ( 1  0  0)
  ( 0  1  0)
  ( 0  0  1)

2 k-points: 2 x 1 x 1 Monkhorst-Pack grid
1 k-point in the irreducible part of the Brillouin zone
       k-points in crystal coordinates                weights
   0:     0.25000000    0.00000000    0.00000000          2/2

Wave functions: LCAO
  Diagonalizer: Serial LAPACK
  Atomic Correction: dense with blas
  Datatype: complex

Eigensolver
   LCAO using direct dense diagonalizer

Densities:
  Coarse grid: 44*84*124 grid
  Fine grid: 88*168*248 grid
  Total Charge: 0.000000

Density mixing:
  Method: separate
  Backend: pulay
  Linear mixing parameter: 0.05
  Mixing with 5 old densities
  Damping of long wave oscillations: 50

Hamiltonian:
  XC and Coulomb potentials evaluated on a 88*168*248 grid
  Using the PBE Exchange-Correlation functional
  Interpolation: tri-quintic (5. degree polynomial)
  Poisson solver: Jacobi solver with 4 multi-grid levels
    Coarsest grid: 11 x 21 x 31 points
    Warning: Coarse grid has more than 24 points.
             More multi-grid levels recommended.
    Stencil: 6*3+1=19 point O(h^6) finite-difference Laplacian
    Max iterations: 1000
    Tolerance: 2.000000e-10

Total number of cores used: 24
Domain decomposition: 2 x 3 x 4

Number of atoms: 64
Number of atomic orbitals: 1152
Number of bands in calculation: 416
Bands to converge: occupied states only
Number of valence electrons: 576

... initialized

Initializing position-dependent things.

Density initialized from atomic densities
 *         |     As        As   |
 |         |   In         In    |
 |       As|       As           |
 |         In         IIn       |
 |    As   | In  As  In     In  |
 |        AIn        In         |
 | In      | In                 |
 |      AAs|   InAIAs     Ins   |
 |  In     InIIn      IIn       |
 |   As    |  AsAs       As     |
 | As    IInAAs    InIns        |
 |    InIn |     IIn            |
 |      AAs|      AsAs          |
 |  Ins    |  InAs              |
 | As      .-As-----------------.

Positions:
   0 As     0.394565    7.268467   17.891313    ( 0.0000,  0.0000,  0.0000)
   1 As     0.397110   11.945722   17.888549    ( 0.0000,  0.0000,  0.0000)
   2 As     4.634771    7.269475   17.892170    ( 0.0000,  0.0000,  0.0000)
   3 As     4.635031   11.945722   17.889206    ( 0.0000,  0.0000,  0.0000)
   4 In     0.384195    1.076472   18.505110    ( 0.0000,  0.0000,  0.0000)
   5 In     4.626414    1.077207   18.506570    ( 0.0000,  0.0000,  0.0000)
   6 In     2.516343    5.665506   17.472971    ( 0.0000,  0.0000,  0.0000)
   7 In     2.519499    9.620952   16.598021    ( 0.0000,  0.0000,  0.0000)
   8 In     2.517322   13.552077   17.473483    ( 0.0000,  0.0000,  0.0000)
   9 In     6.784810    5.615318   17.718589    ( 0.0000,  0.0000,  0.0000)
  10 In     6.791886    9.615280   18.211208    ( 0.0000,  0.0000,  0.0000)
  11 In     6.786423   13.600340   17.717593    ( 0.0000,  0.0000,  0.0000)
  12 As     2.513617    3.043474   17.018590    ( 0.0000,  0.0000,  0.0000)
  13 As     2.515290   16.174927   17.019931    ( 0.0000,  0.0000,  0.0000)
  14 As     6.783909    3.034384   17.066563    ( 0.0000,  0.0000,  0.0000)
  15 As     6.785071   16.183645   17.071977    ( 0.0000,  0.0000,  0.0000)
  16 In     0.359419    3.187948   15.334290    ( 0.0000,  0.0000,  0.0000)
  17 In     5.282489    7.420127   15.225939    ( 0.0000,  0.0000,  0.0000)
  18 In     5.286891   11.803791   15.220814    ( 0.0000,  0.0000,  0.0000)
  19 In     0.360246   16.033521   15.338157    ( 0.0000,  0.0000,  0.0000)
  20 In     4.667173    3.184748   15.336135    ( 0.0000,  0.0000,  0.0000)
  21 In     8.276733    7.422530   15.227329    ( 0.0000,  0.0000,  0.0000)
  22 In     8.277708   11.801169   15.221609    ( 0.0000,  0.0000,  0.0000)
  23 In     4.669408   16.034791   15.338949    ( 0.0000,  0.0000,  0.0000)
  24 As     0.374431    1.070373   13.721157    ( 0.0000,  0.0000,  0.0000)
  25 As     0.376246    5.325232   13.734690    ( 0.0000,  0.0000,  0.0000)
  26 As     0.403386    9.609675   13.856073    ( 0.0000,  0.0000,  0.0000)
  27 As     0.377244   13.900621   13.732730    ( 0.0000,  0.0000,  0.0000)
  28 As     4.650596    1.069921   13.719964    ( 0.0000,  0.0000,  0.0000)
  29 As     4.647962    5.321601   13.733920    ( 0.0000,  0.0000,  0.0000)
  30 As     4.620828    9.610191   13.856180    ( 0.0000,  0.0000,  0.0000)
  31 As     4.648553   13.902524   13.731833    ( 0.0000,  0.0000,  0.0000)
  32 In     2.512230    1.065880   12.120000    ( 0.0000,  0.0000,  0.0000)
  33 In     2.512230    5.336800   12.120000    ( 0.0000,  0.0000,  0.0000)
  34 In     2.512230    9.607730   12.120000    ( 0.0000,  0.0000,  0.0000)
  35 In     2.512230   13.878660   12.120000    ( 0.0000,  0.0000,  0.0000)
  36 In     6.783160    1.065880   12.120000    ( 0.0000,  0.0000,  0.0000)
  37 In     6.783160    5.336800   12.120000    ( 0.0000,  0.0000,  0.0000)
  38 In     6.783160    9.607730   12.120000    ( 0.0000,  0.0000,  0.0000)
  39 In     6.783160   13.878660   12.120000    ( 0.0000,  0.0000,  0.0000)
  40 As     2.512230    3.201340   10.610000    ( 0.0000,  0.0000,  0.0000)
  41 As     2.512230    7.472270   10.610000    ( 0.0000,  0.0000,  0.0000)
  42 As     2.512230   11.743190   10.610000    ( 0.0000,  0.0000,  0.0000)
  43 As     2.512230   16.014120   10.610000    ( 0.0000,  0.0000,  0.0000)
  44 As     6.783160    3.201340   10.610000    ( 0.0000,  0.0000,  0.0000)
  45 As     6.783160    7.472270   10.610000    ( 0.0000,  0.0000,  0.0000)
  46 As     6.783160   11.743190   10.610000    ( 0.0000,  0.0000,  0.0000)
  47 As     6.783160   16.014120   10.610000    ( 0.0000,  0.0000,  0.0000)
  48 In     0.376770    3.201340    9.100000    ( 0.0000,  0.0000,  0.0000)
  49 In     0.376770    7.472270    9.100000    ( 0.0000,  0.0000,  0.0000)
  50 In     0.376770   11.743190    9.100000    ( 0.0000,  0.0000,  0.0000)
  51 In     0.376770   16.014120    9.100000    ( 0.0000,  0.0000,  0.0000)
  52 In     4.647690    3.201340    9.100000    ( 0.0000,  0.0000,  0.0000)
  53 In     4.647690    7.472270    9.100000    ( 0.0000,  0.0000,  0.0000)
  54 In     4.647690   11.743190    9.100000    ( 0.0000,  0.0000,  0.0000)
  55 In     4.647690   16.014120    9.100000    ( 0.0000,  0.0000,  0.0000)
  56 As     0.376770    1.065880    7.590000    ( 0.0000,  0.0000,  0.0000)
  57 As     0.376770    5.336800    7.590000    ( 0.0000,  0.0000,  0.0000)
  58 As     0.376770    9.607730    7.590000    ( 0.0000,  0.0000,  0.0000)
  59 As     0.376770   13.878660    7.590000    ( 0.0000,  0.0000,  0.0000)
  60 As     4.647690    1.065880    7.590000    ( 0.0000,  0.0000,  0.0000)
  61 As     4.647690    5.336800    7.590000    ( 0.0000,  0.0000,  0.0000)
  62 As     4.647690    9.607730    7.590000    ( 0.0000,  0.0000,  0.0000)
  63 As     4.647690   13.878660    7.590000    ( 0.0000,  0.0000,  0.0000)

Unit cell:
           periodic     x           y           z      points  spacing
  1. axis:    yes    8.540000    0.000000    0.000000    44     0.1941
  2. axis:    yes    0.000000   17.080000    0.000000    84     0.2033
  3. axis:    yes    0.000000    0.000000   25.000000   124     0.2016

  Lengths:   8.540000  17.080000  25.000000
  Angles:   90.000000  90.000000  90.000000

Effective grid spacing dv^(1/3) = 0.1996

                     log10-error:    total        iterations:
           time      wfs    density  energy       fermi  poisson
iter:   1  15:54:44          +inf  -222.646428    4      111
iter:   2  15:55:23         -1.30  -221.596542    4      54
iter:   3  15:56:03         -1.34  -219.026708    4      56
iter:   4  15:56:45         -1.47  -218.805342    4      59
iter:   5  15:57:28         -1.77  -218.530186    5      56
iter:   6  15:58:08         -1.96  -218.327370    4      40
iter:   7  15:58:59         -2.25  -218.100910    3      50
iter:   8  15:59:38         -2.53  -218.086497    3      32
iter:   9  16:00:15         -2.63  -218.074330    3      28
iter:  10  16:00:56         -2.78  -218.066221    2      11
iter:  11  16:01:34         -2.89  -218.050951    3      24
iter:  12  16:02:13         -3.13  -218.045006    3      16
iter:  13  16:02:51         -3.23  -218.045347    3      6
iter:  14  16:03:29         -3.32  -218.045797    3      10
iter:  15  16:04:07         -3.65  -218.045111    3      9
iter:  16  16:04:45         -3.77  -218.048079    2      6
iter:  17  16:05:23         -3.89  -218.048885    3      9
iter:  18  16:06:01         -3.94  -218.046951    2      7
iter:  19  16:06:38         -4.13  -218.047485    2      3

Converged after 19 iterations.

Dipole moment: (-184.303520, 22.165340, 2.693904) |e|*Ang

Energy contributions relative to reference atoms: (reference = -7087308.584329)

Kinetic:       +490.461808
Potential:     -452.863289
External:        +0.000000
XC:            -257.843065
Entropy (-ST):   -0.281532
Local:           +2.337827
Free energy:   -218.188251
Extrapolated:  -218.047485

Fermi level: -0.20862

 Band  Eigenvalues  Occupancy
    0    -14.92539    2.00000
    1    -14.92078    2.00000
    2    -14.89011    2.00000
    3    -14.88688    2.00000
    4    -14.85851    2.00000
    5    -14.85365    2.00000
    6    -14.82764    2.00000
    7    -14.82471    2.00000
    8    -14.81907    2.00000
    9    -14.81410    2.00000
   10    -14.81107    2.00000
   11    -14.79821    2.00000
   12    -14.79534    2.00000
   13    -14.79080    2.00000
   14    -14.78872    2.00000
   15    -14.78242    2.00000
   16    -14.78056    2.00000
   17    -14.77949    2.00000
   18    -14.77773    2.00000
   19    -14.76928    2.00000
   20    -14.76451    2.00000
   21    -14.75438    2.00000
   22    -14.75137    2.00000
   23    -14.73603    2.00000
   24    -14.71911    2.00000
   25    -14.66023    2.00000
   26    -14.63920    2.00000
   27    -14.63634    2.00000
   28    -14.63155    2.00000
   29    -14.62378    2.00000
   30    -14.60530    2.00000
   31    -14.59970    2.00000
   32    -14.59322    2.00000
   33    -14.59134    2.00000
   34    -14.58847    2.00000
   35    -14.58600    2.00000
   36    -14.58451    2.00000
   37    -14.57986    2.00000
   38    -14.57962    2.00000
   39    -14.57448    2.00000
   40    -14.57416    2.00000
   41    -14.57257    2.00000
   42    -14.57077    2.00000
   43    -14.57038    2.00000
   44    -14.56610    2.00000
   45    -14.56480    2.00000
   46    -14.56259    2.00000
   47    -14.55785    2.00000
   48    -14.54604    2.00000
   49    -14.54200    2.00000
   50    -14.54142    2.00000
   51    -14.53344    2.00000
   52    -14.53016    2.00000
   53    -14.52672    2.00000
   54    -14.51688    2.00000
   55    -14.51106    2.00000
   56    -14.50778    2.00000
   57    -14.50458    2.00000
   58    -14.50275    2.00000
   59    -14.49764    2.00000
[...]
  401      6.80940    0.00000
  402      6.87190    0.00000
  403      6.90835    0.00000
  404      6.92514    0.00000
  405      6.95413    0.00000
  406      6.97393    0.00000
  407      7.05309    0.00000
  408      7.11981    0.00000
  409      7.15825    0.00000
  410      7.16546    0.00000
  411      7.18784    0.00000
  412      7.30146    0.00000
  413      7.34296    0.00000
  414      7.39324    0.00000
  415      7.40732    0.00000

Writing to scf.gpw (mode='all')